(set-info :smt-lib-version 2.6)
(set-logic QF_UFLRA)
(set-info :source |
MathSat group

|)
(set-info :category "random")
(set-info :status sat)
(declare-fun x0 () Real)
(declare-fun x1 () Real)
(declare-fun x2 () Real)
(declare-fun x3 () Real)
(declare-fun x4 () Real)
(declare-fun x5 () Real)
(declare-fun x6 () Real)
(declare-fun x7 () Real)
(declare-fun x8 () Real)
(declare-fun x9 () Real)
(declare-fun x10 () Real)
(declare-fun x11 () Real)
(declare-fun x12 () Real)
(declare-fun x13 () Real)
(declare-fun x14 () Real)
(declare-fun x15 () Real)
(declare-fun x16 () Real)
(declare-fun x17 () Real)
(declare-fun x18 () Real)
(declare-fun x19 () Real)
(declare-fun x20 () Real)
(declare-fun x21 () Real)
(declare-fun x22 () Real)
(declare-fun x23 () Real)
(declare-fun x24 () Real)
(declare-fun x25 () Real)
(declare-fun x26 () Real)
(declare-fun x27 () Real)
(declare-fun x28 () Real)
(declare-fun x29 () Real)
(declare-fun x30 () Real)
(declare-fun x31 () Real)
(declare-fun x32 () Real)
(declare-fun x33 () Real)
(declare-fun x34 () Real)
(declare-fun x35 () Real)
(declare-fun x36 () Real)
(declare-fun x37 () Real)
(declare-fun x38 () Real)
(declare-fun x39 () Real)
(declare-fun x40 () Real)
(declare-fun x41 () Real)
(declare-fun x42 () Real)
(declare-fun x43 () Real)
(declare-fun x44 () Real)
(declare-fun x45 () Real)
(declare-fun x46 () Real)
(declare-fun x47 () Real)
(declare-fun x48 () Real)
(declare-fun x49 () Real)
(declare-fun f0_1 (Real) Real)
(declare-fun f0_2 (Real Real) Real)
(declare-fun f0_3 (Real Real Real) Real)
(declare-fun f0_4 (Real Real Real Real) Real)
(declare-fun P0 () Bool)
(declare-fun P1 () Bool)
(declare-fun P2 () Bool)
(declare-fun P3 () Bool)
(declare-fun P4 () Bool)
(declare-fun P5 () Bool)
(declare-fun P6 () Bool)
(declare-fun P7 () Bool)
(declare-fun P8 () Bool)
(declare-fun P9 () Bool)
(declare-fun P10 () Bool)
(declare-fun P11 () Bool)
(declare-fun P12 () Bool)
(declare-fun P13 () Bool)
(declare-fun P14 () Bool)
(declare-fun P15 () Bool)
(declare-fun P16 () Bool)
(declare-fun P17 () Bool)
(declare-fun P18 () Bool)
(declare-fun P19 () Bool)
(declare-fun P20 () Bool)
(declare-fun P21 () Bool)
(declare-fun P22 () Bool)
(declare-fun P23 () Bool)
(declare-fun P24 () Bool)
(declare-fun P25 () Bool)
(declare-fun P26 () Bool)
(declare-fun P27 () Bool)
(declare-fun P28 () Bool)
(declare-fun P29 () Bool)
(declare-fun P30 () Bool)
(declare-fun P31 () Bool)
(declare-fun P32 () Bool)
(declare-fun P33 () Bool)
(declare-fun P34 () Bool)
(declare-fun P35 () Bool)
(declare-fun P36 () Bool)
(declare-fun P37 () Bool)
(declare-fun P38 () Bool)
(declare-fun P39 () Bool)
(declare-fun P40 () Bool)
(declare-fun P41 () Bool)
(declare-fun P42 () Bool)
(declare-fun P43 () Bool)
(declare-fun P44 () Bool)
(declare-fun P45 () Bool)
(declare-fun P46 () Bool)
(declare-fun P47 () Bool)
(declare-fun P48 () Bool)
(declare-fun P49 () Bool)
(assert (let ((?v_31 (<= (- (- (* 14 x22) (* 8 x32)) (* 11 x4)) 13)) (?v_92 (* 25 x34)) (?v_54 (* 3 x5)) (?v_198 (< (- (- (* 15 x13) (* 27 x33)) (* 5 x49)) 29)) (?v_124 (* 24 x5)) (?v_129 (< (- (+ (* 8 x0) (* 2 x9)) (* 6 x29)) 19)) (?v_32 (< (- (+ (* 26 x4) (* 17 x14)) (* 3 x18)) 23)) (?v_181 (< (+ (- (* 6 x20) (* 16 x13)) (* 21 x20)) 17)) (?v_40 (* 24 x31)) (?v_146 (<= (+ (- (* 21 x0) (* 9 x30)) (* 18 x42)) 18)) (?v_116 (* 4 x34)) (?v_163 (<= (+ (- (* 10 x40) (* 5 x23)) (* 21 x8)) 17)) (?v_239 (<= (- (+ (* 5 x20) (* 20 x23)) (* 22 x32)) 10)) (?v_147 (= (f0_2 x46 x45) x1)) (?v_79 (= (f0_2 x43 x49) (f0_2 x37 x29))) (?v_57 (f0_1 x8)) (?v_44 (f0_1 x4))) (let ((?v_38 (distinct ?v_57 ?v_44)) (?v_68 (= (f0_1 x38) x24)) (?v_107 (distinct (f0_1 x39) x36)) (?v_51 (f0_1 x46))) (let ((?v_1 (distinct x1 ?v_51)) (?v_245 (= (f0_2 x27 x15) (f0_1 x40))) (?v_96 (f0_1 x45))) (let ((?v_250 (distinct (f0_1 x0) ?v_96)) (?v_242 (= (f0_1 x33) (f0_2 x34 x6))) (?v_50 (= x33 x25)) (?v_63 (distinct ?v_44 (f0_1 x15))) (?v_185 (= (f0_1 x11) (f0_1 x20))) (?v_3 (f0_1 x13))) (let ((?v_14 (= x5 ?v_3)) (?v_69 (= x43 (f0_2 x33 x36))) (?v_123 (= x23 x7)) (?v_22 (distinct x2 (f0_2 x16 x30))) (?v_74 (= x28 (f0_2 x34 x38))) (?v_45 (= (f0_1 x41) (f0_2 x3 x45))) (?v_258 (distinct x9 (f0_2 x34 x18))) (?v_148 (distinct (f0_1 x22) x6)) (?v_90 (distinct (f0_2 x21 x13) (f0_2 x14 x13))) (?v_60 (f0_1 x10))) (let ((?v_95 (distinct x49 ?v_60)) (?v_93 (distinct (f0_2 x25 x30) (f0_2 x39 x40))) (?v_78 (= x36 x21)) (?v_67 (= ?v_57 ?v_96)) (?v_99 (distinct (f0_2 x33 x6) (f0_2 x42 x19))) (?v_30 (f0_1 x19))) (let ((?v_27 (= x19 ?v_30)) (?v_244 (distinct ?v_60 (f0_2 x45 x4))) (?v_11 (f0_1 x44))) (let ((?v_175 (distinct ?v_11 (f0_2 x18 x28))) (?v_132 (distinct (f0_2 x47 x40) (f0_1 x32))) (?v_138 (distinct x7 ?v_44)) (?v_186 (f0_2 x2 x47))) (let ((?v_43 (distinct ?v_186 x40)) (?v_18 (f0_1 x34))) (let ((?v_42 (= x26 ?v_18)) (?v_121 (= ?v_30 x14)) (?v_231 (= x32 (f0_1 x17))) (?v_19 (= ?v_18 x11)) (?v_125 (distinct x21 (f0_2 x46 x48))) (?v_190 (= (f0_2 x33 x33) ?v_51)) (?v_26 (= x29 (f0_2 x42 x29))) (?v_130 (= (f0_1 x2) (f0_1 x16))) (?v_194 (distinct (f0_2 x4 x36) x2)) (?v_178 (= x0 (f0_2 x17 x34))) (?v_205 (distinct ?v_186 (f0_2 x24 x18))) (?v_134 (distinct (f0_2 x13 x26) (f0_2 x47 x21))) (?v_200 (distinct (f0_2 x45 x43) x24)) (?v_0 (= ?v_11 ?v_3)) (?v_86 (= x48 x25)) (?v_61 (distinct (f0_2 x43 x30) x33)) (?v_36 (= (f0_1 x30) (f0_2 x32 x6))) (?v_65 (= x20 x17)) (?v_46 (not P1)) (?v_5 (not ?v_198)) (?v_72 (not ?v_148))) (let ((?v_233 (not ?v_61)) (?v_158 (not ?v_36)) (?v_232 (not P16)) (?v_58 (not ?v_50)) (?v_48 (not ?v_0)) (?v_37 (not ?v_42)) (?v_66 (not ?v_45)) (?v_154 (not P48)) (?v_171 (not ?v_38)) (?v_218 (not P7)) (?v_211 (not ?v_14)) (?v_184 (not ?v_245)) (?v_16 (not P2)) (?v_21 (not ?v_129)) (?v_17 (not P43)) (?v_188 (not P37)) (?v_98 (not P13)) (?v_28 (not ?v_175)) (?v_29 (not P27)) (?v_161 (not ?v_19)) (?v_249 (not P34)) (?v_88 (not P9)) (?v_47 (not P6)) (?v_150 (not P45)) (?v_56 (not P8)) (?v_35 (not ?v_121)) (?v_77 (not ?v_31)) (?v_108 (not P31)) (?v_153 (not P30)) (?v_144 (not P17)) (?v_251 (not P47)) (?v_59 (not ?v_231)) (?v_84 (not ?v_27)) (?v_210 (not P4)) (?v_55 (not ?v_43)) (?v_126 (not ?v_132)) (?v_109 (not P46)) (?v_64 (not P19)) (?v_71 (not P3)) (?v_133 (not ?v_190)) (?v_117 (not ?v_147)) (?v_118 (not P23)) (?v_213 (not ?v_258)) (?v_75 (not ?v_244)) (?v_111 (not ?v_63)) (?v_168 (not P18)) (?v_179 (not ?v_79)) (?v_122 (not ?v_65)) (?v_105 (not P5)) (?v_89 (not ?v_78)) (?v_167 (not ?v_68)) (?v_145 (not ?v_69)) (?v_100 (not ?v_22)) (?v_155 (not P24)) (?v_221 (not ?v_181)) (?v_127 (not P20)) (?v_159 (not ?v_99)) (?v_224 (not ?v_90)) (?v_114 (not ?v_242)) (?v_173 (not P33)) (?v_149 (not ?v_93)) (?v_142 (not ?v_1)) (?v_203 (not ?v_250)) (?v_164 (not P10)) (?v_101 (not P14)) (?v_180 (not P32)) (?v_196 (not P41)) (?v_139 (not P38)) (?v_151 (not ?v_107)) (?v_199 (not P28)) (?v_206 (not P22)) (?v_174 (not P39)) (?v_236 (not ?v_178)) (?v_136 (not ?v_163)) (?v_191 (not ?v_239)) (?v_235 (not ?v_194)) (?v_237 (not ?v_86)) (?v_156 (not P36)) (?v_230 (not ?v_146)) (?v_176 (not P15)) (?v_228 (not P29)) (?v_182 (not P40)) (?v_223 (not ?v_32)) (?v_215 (not ?v_138)) (?v_209 (not P44)) (?v_262 (not ?v_67)) (?v_207 (not ?v_185)) (?v_201 (not ?v_134)) (?v_227 (not P12)) (?v_204 (not P21)) (?v_212 (not ?v_123)) (?v_222 (not ?v_74)) (?v_217 (not ?v_205)) (?v_234 (not P49)) (?v_220 (not ?v_26)) (?v_229 (not P11)) (?v_255 (not ?v_200)) (?v_252 (not P26)) (?v_260 (not ?v_125)) (?v_243 (not P42)) (?v_247 (not ?v_95)) (?v_256 (not P35)) (?v_261 (not P0)) (?v_12 (= (+ (- 0 (* 12 x39)) (* 25 x25)) 25))) (let ((?v_33 (not ?v_12)) (?v_15 (< (+ (* 18 x3) (* 19 x14) (* 14 x2)) 15)) (?v_113 (< (- (- (* 22 x10) (* 20 x25)) 0) 14))) (let ((?v_192 (not ?v_113)) (?v_166 (<= (- (- ?v_40 x28) (* 14 x35)) 17))) (let ((?v_119 (not ?v_166)) (?v_76 (not ?v_15)) (?v_226 (< (+ (* 18 x47) (* 9 x24) (* 24 x49)) 3)) (?v_202 (< (- (- (* 20 x41) (* 14 x38)) x26) 9))) (let ((?v_253 (not ?v_202)) (?v_162 (distinct (- (+ (* 9 x15) (* 4 x12)) (* 4 x25)) (- 1)))) (let ((?v_9 (not ?v_162)) (?v_52 (< (- (- x33 0) ?v_54) (- 23))) (?v_141 (< (- (- (* (- 6) x30) (* 11 x46)) (* 2 x43)) 5))) (let ((?v_170 (not ?v_141)) (?v_2 (<= (- (+ (* (- 8) x40) x9) ?v_124) 22)) (?v_4 (< (- (- (* (- 25) x43) (* 27 x47)) 0) 7)) (?v_81 (distinct (- (* (- 2) x29) (* 22 x20)) (- 4))) (?v_8 (< (- (- x3 ?v_92) (* 24 x22)) (- 21))) (?v_13 (< (+ (* 18 x0) (* 12 x22) (* 20 x19)) (- 26)))) (let ((?v_25 (not ?v_13)) (?v_10 (not ?v_2)) (?v_39 (<= (* (- 20) x45) 24)) (?v_20 (<= (+ (- (* (- 2) x23) ?v_116) (* 27 x32)) 25))) (let ((?v_73 (not ?v_20)) (?v_110 (not ?v_4)) (?v_104 (< (+ (- (* (- 3) x6) (* 9 x34)) (* 7 x31)) (- 7)))) (let ((?v_6 (not ?v_104)) (?v_259 (distinct (+ (* (- 4) x35) (* 18 x15) (* 7 x6)) (- 26)))) (let ((?v_7 (not ?v_259)) (?v_83 (not ?v_8)) (?v_102 (< (- (* (- 25) x9) ?v_40) (- 24)))) (let ((?v_165 (not ?v_102)) (?v_23 (or ?v_10 ?v_28)) (?v_94 (<= (- (- (* (- 6) x44) (* 21 x18)) (* 12 x13)) 12)) (?v_115 (< (- (+ (* (- 15) x27) (* 24 x4)) (* 2 x15)) 3))) (let ((?v_254 (not ?v_115)) (?v_24 (< (- (+ (* (- 16) x1) (* 7 x42)) (* 25 x9)) (- 8)))) (let ((?v_85 (not ?v_24)) (?v_34 (<= (- (+ (* 7 x34) (* 18 x38)) 0) (- 6))) (?v_143 (<= (- (+ (* 6 x14) (* 19 x17)) (* 17 x20)) (- 13)))) (let ((?v_91 (not ?v_143)) (?v_87 (< (- (+ (* 9 x31) (* 4 x22)) (* 15 x15)) (- 10))) (?v_80 (= (+ (* (- 9) x27) (* 7 x23) (* 25 x36)) (- 26))) (?v_70 (not ?v_34)) (?v_41 (<= (+ (- (* 12 x8) (* 12 x43)) (* 18 x49)) (- 23)))) (let ((?v_49 (not ?v_41)) (?v_140 (<= (- (+ (* 17 x18) (* 13 x1)) (* 13 x22)) (- 22)))) (let ((?v_137 (not ?v_140)) (?v_53 (<= (+ (* (- 5) x35) (* 5 x3)) 19))) (let ((?v_103 (not ?v_53)) (?v_128 (< (- (+ (* (- 24) x27) (* 12 x32)) (* 19 x34)) (- 19))) (?v_112 (= (- (- (* 4 x27) (* 4 x44)) (* 8 x7)) (- 23))) (?v_241 (not ?v_52)) (?v_62 (< (- (- x8 (* 27 x39)) (* 5 x32)) (- 5)))) (let ((?v_82 (not ?v_62)) (?v_97 (distinct (- (* 12 x34) ?v_54) (- 22))) (?v_240 (distinct (- (* 2 x2) (* 13 x29)) (- 7)))) (let ((?v_177 (not ?v_240)) (?v_172 (distinct (+ (* (- 26) x3) (* 10 x24) (* 20 x20)) 21)) (?v_135 (<= (- (- (* 7 x3) (* 22 x36)) (* 2 x24)) (- 16)))) (let ((?v_131 (not ?v_135)) (?v_120 (not ?v_81)) (?v_160 (not ?v_87)) (?v_169 (<= (- (- (* (- 1) x26) (* 11 x26)) ?v_92) (- 24))) (?v_219 (not ?v_94)) (?v_208 (not ?v_97)) (?v_106 (<= (- (+ (* 15 x16) (* 23 x10)) (* 25 x1)) (- 12))) (?v_183 (<= (- (+ (* (- 14) x15) (* 19 x29)) (* 8 x26)) 2)) (?v_152 (not ?v_112)) (?v_195 (distinct (+ (- (* 15 x4) ?v_116) (* 11 x18)) (- 14)))) (let ((?v_187 (not ?v_195)) (?v_214 (<= (- (- (* (- 15) x12) ?v_124) (* 3 x43)) (- 9))) (?v_157 (not ?v_128)) (?v_197 (not ?v_106)) (?v_189 (<= (- (+ (* (- 27) x10) (* 20 x10)) x5) 20))) (let ((?v_248 (not ?v_189)) (?v_193 (not ?v_172)) (?v_216 (not ?v_214)) (?v_238 (not ?v_183)) (?v_225 (not ?v_39)) (?v_246 (not ?v_169)) (?v_257 (not ?v_80))) (and (and (and (and (and (and (and (and (and (and (and (and (and (and (and (and (and (and (and (and (and (and (and (and (and (and (and (and (and (and (and (and (and (and (and (and (and (and (and (and (and (and (and (and (and (and (and (and (and (and (and (and (and (and (and (and (and (and (and (and (and (and (and (and (and (and (and (and (and (and (and (and (and (and (and (and (and (and (and (and (and (and (and (and (and (and (and (and (and (and (and (and (and (and (and (and (and (and (and (and (and (and (and (and (and (and (and (and (and (and (and (and (and (and (and (and (and (and (and (and (and (and (and (and (and (and (and (and (and (and (and (and (and (and (and (and (and (and (and (and (and (and (and (and (and (and (and (and (and (and (and (and (and (and (and (and (and (and (and (and (and (and (and (and (and (and (and (and (and (and (and (and (and (and (and (and (and (and (and (and (and (and (and (and (and (and (and (and (and (and (and (and (and (and (and (and (and (and (and (and (and (and (and (and (and (and (and (and (and (and (and (and (and (and (and (and (and (and (and (and (and (and (and (and (and (and (and (and (and (and (and (and (and (and (and (and (and (and (and (and (and (and (and (and (and (and (and (and (and (and (and (and (and (and (and (and (and (and (and (and (and (and (and (and (and (and (and (and (and (and (and (and (and (and (and (and (and (and (and (and (and (and (and (and (and (and (and (and (and (and (and (and (and (and (and (and (and (and (and (and (and (and (and (and (and (and (and (and (and (and (and (and (and (and (and (and (and (and (and (and (and (and (and (and (and (and (and (and (and (and (and (and (and (and (and (and (and (and (and (and (and (and (and (and (and (and (and (and (and (and (and (and (and (and (and (and (and (and (and (and (and (and (and (and (and (and (and (and (and (and (and (and (and (and (and (and (and (and (and (and (and (and (and (and (and (and (and (and (and (and (and (and (and (and (and (and (and (and (and (and (and (and (and (and (and (and (and (and (and (and (and (and (and (and (and (and (and (and (and (and (and (and (and (and (and (and (and (and (and (and (and (and (and (and (and (and (and (and (and (and (and (and (and (and (and (and (and (and (and (and (and (and (and (and (and (and (and (and (and (and (and (and (and (and (and (and (and (and (and (and (and (and (and (and (and (and (and (and (and (and (and (and (and (and (and (and (and (and (and (and (and (and (and (and (and (and (and (and (and (and (and (and (and (and (and (and (and (and (and (and (and (and (and (and (and (and (and (and (and (and (and (and (and (and (and (and (and (and (and (and (and (and (and (and (and (and (and (and (and (and (and (and (and (and (and (and (and (and (and (and (and (and (and (and (and (and (and (and (and (and (and (and (and (and (and (and (and (and (and (and (and (and (and (and (and (and (and (and (and (and (and (and (and (and (and (and (and (and (and (and (and (and (and (and (and (and (and (and (and (or (or ?v_1 ?v_46) ?v_5) (or (or ?v_9 ?v_72) ?v_233)) (or (or ?v_0 ?v_158) ?v_52)) (or (or ?v_232 P46) P18)) (or (or ?v_58 ?v_170) ?v_33)) (or (or ?v_2 ?v_4) ?v_48)) (or (or ?v_74 ?v_1) ?v_37)) (or (or ?v_69 ?v_86) ?v_66)) (or (or P41 ?v_81) ?v_15)) (or (or ?v_154 ?v_171) P13)) (or (or ?v_90 P30) ?v_218)) (or (or ?v_8 ?v_25) P27)) (or (or ?v_10 ?v_211) ?v_184)) (or (or P36 ?v_16) ?v_39)) (or (or ?v_21 P24) ?v_73)) (or (or P19 ?v_110) ?v_17)) (or (or ?v_6 ?v_5) ?v_188)) (or (or ?v_6 ?v_7) ?v_123)) (or (or ?v_7 ?v_83) ?v_9)) (or (or ?v_98 ?v_165) P1)) (or ?v_23 ?v_12)) (or (or ?v_13 ?v_9) ?v_14)) (or (or ?v_94 ?v_15) ?v_16)) (or (or ?v_17 ?v_19) ?v_29)) (or (or ?v_161 ?v_26) ?v_192)) (or (or ?v_249 ?v_31) P16)) (or (or ?v_22 ?v_254) ?v_88)) (or (or ?v_20 ?v_85) P20)) (or (or ?v_21 ?v_47) ?v_22)) (or ?v_23 ?v_24)) (or (or P29 ?v_32) ?v_27)) (or (or ?v_150 ?v_25) ?v_26)) (or (or ?v_27 ?v_9) ?v_34)) (or (or ?v_43 ?v_28) P11)) (or (or ?v_56 P9) ?v_29)) (or (or ?v_35 ?v_91) ?v_31)) (or (or ?v_95 ?v_107) ?v_9)) (or (or ?v_87 ?v_32) ?v_9)) (or (or P40 ?v_80) ?v_27)) (or (or ?v_33 P13) ?v_70)) (or (or ?v_77 ?v_35) P26)) (or (or ?v_25 ?v_36) ?v_37)) (or (or ?v_108 ?v_153) ?v_144)) (or (or ?v_251 ?v_38) ?v_49)) (or (or P41 ?v_134) ?v_39)) (or (or ?v_119 ?v_59) P26)) (or (or ?v_41 ?v_84) ?v_42)) (or (or ?v_210 ?v_55) ?v_126)) (or (or P47 P25) ?v_63)) (or (or P42 ?v_45) ?v_46)) (or (or ?v_47 ?v_109) P43)) (or (or ?v_29 ?v_125) ?v_137)) (or (or ?v_48 ?v_64) P16)) (or (or ?v_103 ?v_128) P5)) (or (or P9 ?v_49) ?v_50)) (or (or ?v_112 P28) ?v_71)) (or (or ?v_133 ?v_21) ?v_6)) (or (or ?v_241 P19) ?v_53)) (or (or ?v_82 ?v_29) ?v_97)) (or (or ?v_8 P39) ?v_16)) (or (or ?v_117 ?v_12) ?v_93)) (or (or ?v_55 ?v_43) P2)) (or (or P27 ?v_5) ?v_56)) (or (or ?v_65 P9) P43)) (or (or ?v_7 ?v_4) ?v_67)) (or (or ?v_58 ?v_118) ?v_213)) (or (or ?v_59 P6) ?v_75)) (or (or ?v_61 ?v_10) ?v_62)) (or (or ?v_111 ?v_64) ?v_168)) (or (or ?v_179 P42) ?v_122)) (or (or ?v_105 ?v_177) ?v_28)) (or (or ?v_66 ?v_68) ?v_67)) (or (or ?v_200 ?v_89) ?v_49)) (or (or ?v_167 ?v_145) ?v_70)) (or (or P42 P13) ?v_12)) (or (or ?v_172 ?v_71) ?v_7)) (or (or ?v_37 ?v_72) P44)) (or (or ?v_100 P44) ?v_155)) (or (or ?v_17 P3) P47)) (or (or ?v_73 ?v_74) ?v_76)) (or (or P24 ?v_26) ?v_221)) (or (or ?v_127 ?v_71) ?v_17)) (or (or ?v_75 P32) ?v_64)) (or (or ?v_76 ?v_77) ?v_78)) (or (or ?v_64 ?v_26) ?v_68)) (or (or ?v_53 ?v_79) ?v_80)) (or (or P36 ?v_46) P29)) (or (or P3 ?v_159) ?v_131)) (or (or ?v_120 ?v_82) ?v_83)) (or (or ?v_84 ?v_85) ?v_86)) (or (or ?v_160 ?v_138) ?v_33)) (or (or P26 ?v_88) ?v_4)) (or (or ?v_89 ?v_75) ?v_224)) (or (or ?v_114 ?v_63) ?v_36)) (or (or ?v_12 ?v_91) ?v_169)) (or (or ?v_173 ?v_149) ?v_219)) (or (or ?v_4 ?v_19) ?v_95)) (or (or ?v_142 ?v_203) ?v_97)) (or (or ?v_53 ?v_98) ?v_164)) (or (or ?v_208 ?v_101) ?v_99)) (or (or ?v_87 ?v_106) ?v_100)) (or (or ?v_183 ?v_79) ?v_68)) (or (or ?v_101 P17) ?v_102)) (or (or P32 ?v_97) (not ?v_226))) (or (or ?v_130 ?v_45) ?v_103)) (or (or ?v_180 P39) ?v_104)) (or (or P33 ?v_105) ?v_196)) (or (or P18 ?v_139) ?v_106)) (or (or ?v_151 ?v_108) P30)) (or (or ?v_95 P15) ?v_199)) (or (or ?v_109 ?v_110) ?v_111)) (or (or ?v_152 ?v_206) ?v_46)) (or (or ?v_37 ?v_174) ?v_113)) (or (or ?v_66 P28) ?v_114)) (or (or ?v_236 ?v_115) ?v_136)) (or (or P34 ?v_108) ?v_106)) (or (or ?v_191 ?v_187) ?v_25)) (or (or ?v_99 ?v_26) ?v_117)) (or (or ?v_235 P4) ?v_50)) (or (or ?v_77 P38) ?v_81)) (or (or ?v_237 ?v_118) P17)) (or (or ?v_119 ?v_156) ?v_99)) (or (or ?v_120 ?v_121) ?v_122)) (or (or P36 P6) P2)) (or (or ?v_123 ?v_230) ?v_214)) (or (or ?v_93 P18) ?v_125)) (or (or ?v_126 ?v_13) ?v_118)) (or (or ?v_38 ?v_126) P47)) (or (or ?v_127 ?v_157) ?v_61)) (or (or ?v_129 P41) P38)) (or (or ?v_86 P7) ?v_19)) (or (or ?v_74 ?v_102) P8)) (or (or ?v_8 (not ?v_130)) ?v_87)) (or (or ?v_5 ?v_34) P7)) (or (or ?v_62 P24) P9)) (or (or ?v_197 ?v_81) P3)) (or (or ?v_131 ?v_50) P27)) (or (or ?v_176 ?v_132) ?v_129)) (or (or ?v_228 ?v_98) ?v_122)) (or (or P16 P26) ?v_133)) (or (or ?v_182 P4) ?v_134)) (or (or ?v_135 ?v_136) ?v_22)) (or (or ?v_137 ?v_24) ?v_108)) (or (or ?v_223 ?v_215) ?v_113)) (or (or ?v_139 ?v_128) ?v_209)) (or (or P28 ?v_262) ?v_34)) (or (or ?v_93 ?v_140) ?v_49)) (or (or ?v_141 ?v_207) ?v_142)) (or (or ?v_32 ?v_201) ?v_227)) (or (or ?v_143 ?v_144) ?v_248)) (or (or P5 ?v_130) P28)) (or (or ?v_110 ?v_76) ?v_145)) (or (or ?v_125 ?v_132) ?v_80)) (or (or ?v_132 ?v_202) ?v_146)) (or (or ?v_147 ?v_148) ?v_149)) (or (or ?v_147 P34) ?v_132)) (or (or P20 ?v_27) ?v_150)) (or (or ?v_73 ?v_151) ?v_152)) (or (or ?v_153 ?v_68) ?v_128)) (or (or ?v_39 ?v_149) ?v_4)) (or (or ?v_13 ?v_154) ?v_71)) (or (or ?v_50 ?v_89) P20)) (or (or ?v_155 ?v_111) ?v_146)) (or (or ?v_156 ?v_157) ?v_50)) (or (or ?v_120 ?v_43) ?v_22)) (or (or ?v_158 ?v_159) ?v_121)) (or (or ?v_79 ?v_53) ?v_160)) (or (or ?v_161 ?v_162) ?v_33)) (or (or ?v_134 ?v_143) ?v_131)) (or (or ?v_204 ?v_105) ?v_130)) (or (or ?v_163 ?v_164) ?v_20)) (or (or ?v_165 ?v_68) ?v_166)) (or (or ?v_167 ?v_168) ?v_2)) (or (or ?v_34 ?v_74) ?v_169)) (or (or ?v_37 ?v_55) P37)) (or (or ?v_170 ?v_22) ?v_212)) (or (or ?v_171 ?v_193) ?v_147)) (or (or ?v_173 ?v_174) ?v_74)) (or (or ?v_168 ?v_100) ?v_39)) (or (or ?v_175 ?v_93) (not P25))) (or (or P3 ?v_176) P16)) (or (or ?v_177 ?v_178) ?v_117)) (or (or ?v_69 ?v_108) ?v_171)) (or (or ?v_76 ?v_179) P46)) (or (or ?v_83 ?v_95) ?v_174)) (or (or ?v_94 ?v_139) P19)) (or (or ?v_159 ?v_180) ?v_6)) (or (or ?v_181 ?v_58) ?v_39)) (or (or ?v_100 ?v_75) P12)) (or (or ?v_158 ?v_148) ?v_0)) (or (or ?v_14 ?v_182) ?v_31)) (or (or ?v_152 ?v_183) ?v_150)) (or (or ?v_184 ?v_0) ?v_106)) (or (or ?v_109 ?v_185) ?v_205)) (or (or ?v_122 ?v_137) ?v_187)) (or (or ?v_188 ?v_79) ?v_104)) (or (or ?v_189 ?v_190) ?v_191)) (or (or ?v_69 P39) P18)) (or (or ?v_64 ?v_53) ?v_168)) (or (or ?v_192 ?v_14) ?v_118)) (or (or ?v_193 ?v_59) ?v_97)) (or (or ?v_194 ?v_195) ?v_196)) (or (or ?v_139 ?v_197) ?v_198)) (or (or P0 ?v_61) ?v_199)) (or (or ?v_176 ?v_19) ?v_24)) (or (or ?v_14 ?v_200) P26)) (or (or ?v_222 ?v_15) ?v_201)) (or (or ?v_199 ?v_155) ?v_25)) (or (or ?v_80 ?v_253) P33)) (or (or ?v_84 ?v_69) P27)) (or (or P45 ?v_131) ?v_102)) (or (or P13 ?v_22) ?v_203)) (or (or ?v_204 ?v_136) ?v_202)) (or (or ?v_217 ?v_95) ?v_101)) (or (or ?v_179 ?v_206) P24)) (or (or ?v_187 P3) ?v_89)) (or (or P21 ?v_185) P47)) (or (or ?v_154 ?v_52) ?v_207)) (or (or P31 ?v_0) ?v_117)) (or (or ?v_43 ?v_108) ?v_176)) (or (or ?v_208 ?v_155) P43)) (or (or ?v_46 ?v_66) ?v_194)) (or (or ?v_26 ?v_188) ?v_130)) (or (or ?v_49 ?v_84) ?v_134)) (or (or ?v_133 ?v_209) ?v_173)) (or (or P2 ?v_210) ?v_114)) (or (or ?v_234 P46) ?v_141)) (or (or ?v_211 ?v_81) ?v_212)) (or (or P19 ?v_43) ?v_179)) (or (or ?v_213 ?v_216) P1)) (or (or ?v_0 ?v_94) ?v_150)) (or (or ?v_166 ?v_91) ?v_100)) (or (or ?v_204 ?v_117) ?v_206)) (or (or P43 ?v_61) ?v_127)) (or (or ?v_215 ?v_105) ?v_41)) (or (or ?v_126 ?v_68) ?v_200)) (or (or ?v_99 ?v_216) P17)) (or (or ?v_220 ?v_217) ?v_201)) (or (or ?v_58 ?v_218) ?v_31)) (or (or ?v_75 ?v_148) ?v_165)) (or (or ?v_238 ?v_148) P45)) (or (or ?v_102 ?v_197) ?v_207)) (or (or ?v_133 ?v_218) ?v_81)) (or (or ?v_200 ?v_4) ?v_121)) (or (or ?v_134 ?v_164) P47)) (or (or ?v_0 ?v_52) P14)) (or (or P25 ?v_113) ?v_69)) (or (or ?v_43 ?v_37) ?v_129)) (or (or ?v_32 P9) P14)) (or (or ?v_13 P45) ?v_229)) (or (or ?v_219 ?v_27) ?v_169)) (or (or ?v_127 ?v_72) ?v_125)) (or (or ?v_173 ?v_207) ?v_220)) (or (or P34 ?v_221) ?v_37)) (or (or ?v_91 ?v_47) ?v_222)) (or (or ?v_225 ?v_36) ?v_170)) (or (or ?v_65 ?v_38) P41)) (or (or P33 ?v_100) ?v_158)) (or (or ?v_114 ?v_97) P31)) (or (or ?v_55 ?v_223) ?v_189)) (or (or P25 ?v_218) ?v_59)) (or (or ?v_61 ?v_187) ?v_152)) (or (or ?v_33 ?v_134) P25)) (or (or ?v_63 ?v_220) ?v_130)) (or (or ?v_153 ?v_86) P17)) (or (or ?v_117 ?v_255) ?v_224)) (or (or ?v_36 ?v_120) ?v_34)) (or (or ?v_87 ?v_183) ?v_225)) (or (or ?v_33 ?v_2) ?v_104)) (or (or ?v_177 ?v_195) P49)) (or (or P43 ?v_226) ?v_227)) (or (or ?v_228 ?v_139) P36)) (or (or ?v_246 P10) P25)) (or (or ?v_29 ?v_222) ?v_52)) (or (or ?v_28 ?v_229) ?v_85)) (or (or ?v_109 ?v_64) ?v_164)) (or (or ?v_15 ?v_177) ?v_148)) (or (or ?v_197 ?v_230) P38)) (or (or ?v_119 ?v_214) ?v_39)) (or (or P5 ?v_162) ?v_85)) (or (or ?v_8 ?v_84) ?v_181)) (or (or ?v_181 ?v_224) P0)) (or (or ?v_24 ?v_88) ?v_7)) (or (or ?v_29 ?v_141) ?v_55)) (or (or ?v_231 ?v_168) P46)) (or (or ?v_232 ?v_61) ?v_209)) (or (or ?v_162 ?v_64) ?v_37)) (or (or ?v_140 ?v_118) P14)) (or (or ?v_188 P35) ?v_52)) (or (or P0 ?v_221) ?v_141)) (or (or ?v_139 ?v_76) ?v_50)) (or (or ?v_37 ?v_102) ?v_154)) (or (or P39 ?v_252) ?v_109)) (or (or ?v_65 ?v_165) ?v_7)) (or (or ?v_123 P30) ?v_233)) (or (or ?v_20 P30) ?v_187)) (or (or ?v_190 ?v_108) ?v_56)) (or (or ?v_260 ?v_61) P44)) (or (or ?v_158 ?v_195) P12)) (or (or ?v_183 ?v_94) ?v_198)) (or (or ?v_114 ?v_81) ?v_89)) (or (or ?v_135 ?v_157) ?v_64)) (or (or ?v_144 P36) P20)) (or (or ?v_234 ?v_112) ?v_167)) (or (or P4 ?v_117) ?v_108)) (or (or ?v_146 ?v_70) ?v_127)) (or (or P46 P20) P41)) (or (or P31 ?v_94) ?v_58)) (or (or ?v_198 ?v_214) P31)) (or (or ?v_181 ?v_145) ?v_235)) (or (or ?v_209 ?v_71) ?v_105)) (or (or ?v_219 ?v_108) ?v_173)) (or (or ?v_152 ?v_63) ?v_2)) (or (or P15 ?v_90) ?v_79)) (or (or ?v_243 ?v_226) P23)) (or (or ?v_100 ?v_148) ?v_225)) (or (or ?v_63 ?v_198) ?v_6)) (or (or ?v_206 ?v_108) ?v_139)) (or (or ?v_65 ?v_188) ?v_197)) (or (or ?v_223 ?v_139) ?v_17)) (or (or P1 P39) ?v_177)) (or (or ?v_236 ?v_189) ?v_229)) (or (or ?v_128 ?v_174) ?v_42)) (or (or ?v_103 ?v_232) ?v_174)) (or (or P5 ?v_16) ?v_20)) (or (or ?v_179 ?v_130) ?v_175)) (or (or ?v_24 P36) P18)) (or (or ?v_237 ?v_197) ?v_26)) (or (or ?v_141 ?v_227) ?v_128)) (or (or ?v_237 ?v_15) ?v_120)) (or (or ?v_14 P15) P29)) (or (or ?v_63 P28) P35)) (or (or ?v_151 ?v_24) ?v_238)) (or (or ?v_197 ?v_236) ?v_239)) (or (or ?v_191 ?v_247) ?v_144)) (or (or ?v_240 ?v_140) P17)) (or (or ?v_206 ?v_64) ?v_7)) (or (or P21 ?v_36) P22)) (or (or ?v_196 ?v_203) ?v_118)) (or (or P29 ?v_195) ?v_98)) (or (or P22 ?v_218) P41)) (or (or ?v_241 ?v_154) P26)) (or (or ?v_150 ?v_227) ?v_256)) (or (or ?v_144 P4) ?v_38)) (or (or ?v_167 ?v_226) ?v_207)) (or (or ?v_66 ?v_98) ?v_208)) (or (or ?v_220 ?v_94) ?v_131)) (or (or ?v_68 P3) ?v_207)) (or (or ?v_156 ?v_162) ?v_50)) (or (or ?v_100 ?v_242) ?v_70)) (or (or P41 ?v_158) ?v_75)) (or (or ?v_62 ?v_38) ?v_129)) (or (or ?v_177 ?v_235) ?v_113)) (or (or ?v_158 ?v_115) ?v_77)) (or (or ?v_117 ?v_137) ?v_215)) (or (or ?v_127 ?v_100) P16)) (or (or ?v_154 ?v_151) ?v_174)) (or (or ?v_153 ?v_134) ?v_126)) (or (or ?v_109 ?v_166) ?v_164)) (or (or P28 ?v_84) ?v_232)) (or (or ?v_204 ?v_175) ?v_12)) (or (or ?v_123 ?v_71) ?v_243)) (or (or ?v_126 P29) ?v_75)) (or (or ?v_4 ?v_151) ?v_108)) (or (or ?v_63 ?v_25) ?v_167)) (or (or ?v_201 ?v_144) P32)) (or (or ?v_214 ?v_78) ?v_211)) (or (or ?v_82 ?v_37) ?v_48)) (or (or ?v_117 ?v_121) ?v_70)) (or (or ?v_142 ?v_137) ?v_118)) (or (or ?v_196 ?v_242) ?v_29)) (or (or ?v_219 ?v_244) P6)) (or (or ?v_104 ?v_36) ?v_89)) (or (or ?v_157 ?v_37) ?v_225)) (or (or ?v_211 ?v_147) ?v_156)) (or (or ?v_35 P36) P27)) (or (or ?v_212 P35) ?v_17)) (or (or ?v_212 ?v_43) ?v_35)) (or (or ?v_142 ?v_192) ?v_106)) (or (or ?v_95 ?v_126) ?v_137)) (or (or ?v_229 ?v_7) ?v_14)) (or (or ?v_179 ?v_245) ?v_43)) (or (or ?v_196 ?v_16) ?v_237)) (or (or ?v_47 ?v_117) P1)) (or (or P10 ?v_22) ?v_132)) (or (or ?v_216 ?v_37) ?v_72)) (or (or ?v_222 ?v_53) ?v_25)) (or (or ?v_17 ?v_6) ?v_246)) (or (or ?v_21 ?v_123) ?v_247)) (or (or P37 ?v_248) ?v_125)) (or (or P44 ?v_204) ?v_245)) (or (or ?v_68 ?v_109) ?v_147)) (or (or ?v_108 ?v_190) ?v_249)) (or (or ?v_200 ?v_184) ?v_174)) (or (or ?v_236 ?v_118) ?v_192)) (or (or ?v_72 ?v_207) ?v_69)) (or (or ?v_50 ?v_140) ?v_218)) (or (or ?v_126 ?v_103) ?v_65)) (or (or P36 ?v_195) ?v_231)) (or (or ?v_197 ?v_102) ?v_150)) (or (or ?v_88 ?v_14) ?v_62)) (or (or ?v_73 ?v_48) ?v_183)) (or (or ?v_164 ?v_121) ?v_181)) (or (or P17 P12) ?v_20)) (or (or ?v_66 ?v_244) ?v_241)) (or (or ?v_196 ?v_66) P22)) (or (or ?v_188 ?v_43) P3)) (or (or ?v_168 ?v_21) ?v_45)) (or (or P31 ?v_43) ?v_241)) (or (or ?v_26 P29) ?v_127)) (or (or P34 P16) ?v_120)) (or (or ?v_144 ?v_78) ?v_215)) (or (or ?v_71 ?v_21) ?v_4)) (or (or P16 ?v_12) P24)) (or (or ?v_223 ?v_203) ?v_89)) (or (or ?v_114 ?v_110) P18)) (or (or ?v_84 ?v_86) P25)) (or (or ?v_37 ?v_56) ?v_197)) (or (or ?v_213 P10) ?v_47)) (or (or ?v_56 ?v_185) ?v_85)) (or (or ?v_196 ?v_52) ?v_99)) (or (or ?v_150 ?v_21) ?v_118)) (or (or ?v_167 ?v_170) ?v_228)) (or (or ?v_94 P49) P25)) (or (or ?v_151 ?v_56) ?v_171)) (or (or ?v_235 ?v_159) ?v_9)) (or (or ?v_39 P42) ?v_250)) (or (or ?v_209 ?v_247) ?v_261)) (or (or ?v_106 ?v_247) P3)) (or (or ?v_14 P11) ?v_251)) (or (or ?v_47 ?v_32) ?v_245)) (or (or ?v_98 ?v_111) ?v_170)) (or (or ?v_250 ?v_173) ?v_224)) (or (or ?v_221 P44) ?v_28)) (or (or ?v_249 P1) ?v_144)) (or (or ?v_154 ?v_85) P19)) (or (or ?v_173 ?v_110) ?v_230)) (or (or ?v_193 ?v_153) ?v_16)) (or (or ?v_203 ?v_13) ?v_138)) (or (or ?v_93 ?v_135) ?v_8)) (or (or P35 ?v_93) ?v_227)) (or (or ?v_210 P34) ?v_233)) (or (or ?v_122 ?v_248) ?v_252)) (or (or ?v_196 P21) ?v_39)) (or (or ?v_244 ?v_77) ?v_121)) (or (or P19 ?v_253) ?v_94)) (or (or P14 ?v_10) ?v_254)) (or (or ?v_8 ?v_231) ?v_217)) (or (or ?v_89 P31) ?v_87)) (or (or ?v_106 ?v_12) ?v_235)) (or (or ?v_206 ?v_110) ?v_211)) (or (or ?v_223 ?v_0) P6)) (or (or ?v_179 ?v_185) ?v_71)) (or (or ?v_93 ?v_106) ?v_146)) (or (or ?v_35 ?v_45) ?v_28)) (or (or ?v_12 P46) ?v_228)) (or (or P23 ?v_25) ?v_137)) (or (or ?v_216 ?v_135) ?v_117)) (or (or ?v_244 ?v_156) P11)) (or (or ?v_163 ?v_20) ?v_182)) (or (or ?v_129 ?v_164) ?v_162)) (or (or ?v_177 ?v_189) ?v_55)) (or (or ?v_86 ?v_160) ?v_20)) (or (or ?v_226 ?v_13) P35)) (or (or ?v_183 ?v_100) ?v_53)) (or (or ?v_161 ?v_84) ?v_235)) (or (or ?v_94 ?v_212) ?v_62)) (or (or ?v_145 ?v_136) P47)) (or (or P34 ?v_24) P2)) (or (or ?v_257 P43) ?v_97)) (or (or P14 ?v_232) ?v_142)) (or (or ?v_178 ?v_249) ?v_255)) (or (or ?v_157 P12) ?v_126)) (or (or ?v_15 ?v_178) ?v_125)) (or (or ?v_46 ?v_4) ?v_16)) (or (or ?v_46 ?v_165) P39)) (or (or ?v_252 P18) ?v_249)) (or (or ?v_202 ?v_105) ?v_41)) (or (or ?v_97 ?v_117) ?v_126)) (or (or ?v_157 ?v_241) ?v_118)) (or (or ?v_176 ?v_210) ?v_241)) (or (or ?v_15 ?v_168) ?v_38)) (or (or ?v_14 ?v_21) ?v_209)) (or (or ?v_50 ?v_254) ?v_185)) (or (or P15 P36) ?v_247)) (or (or ?v_223 P49) ?v_157)) (or (or ?v_174 P45) P0)) (or (or ?v_182 ?v_236) ?v_5)) (or (or ?v_38 ?v_183) ?v_172)) (or (or P23 ?v_145) ?v_43)) (or (or ?v_227 P6) ?v_7)) (or (or ?v_117 ?v_107) ?v_83)) (or (or ?v_214 ?v_191) ?v_76)) (or (or ?v_10 P40) P21)) (or (or ?v_151 ?v_158) ?v_38)) (or (or ?v_75 P20) ?v_166)) (or (or ?v_145 P24) ?v_101)) (or (or ?v_256 ?v_215) ?v_149)) (or (or P19 ?v_61) ?v_42)) (or (or P37 ?v_143) ?v_136)) (or (or P39 ?v_151) ?v_31)) (or (or ?v_113 ?v_1) ?v_36)) (or (or ?v_254 ?v_109) ?v_45)) (or (or ?v_69 ?v_201) ?v_241)) (or (or ?v_166 ?v_242) ?v_83)) (or (or P42 P43) P8)) (or (or ?v_22 ?v_9) ?v_47)) (or (or ?v_36 ?v_67) ?v_189)) (or (or ?v_36 ?v_152) ?v_216)) (or (or P47 P41) P40)) (or (or P49 ?v_58) ?v_41)) (or (or ?v_216 ?v_230) P37)) (or (or ?v_257 ?v_155) ?v_47)) (or (or ?v_258 ?v_61) ?v_249)) (or (or ?v_61 P39) P36)) (or (or ?v_1 ?v_76) P28)) (or (or ?v_125 ?v_151) ?v_173)) (or (or ?v_26 ?v_100) ?v_136)) (or (or ?v_217 P32) ?v_230)) (or (or ?v_178 ?v_94) ?v_188)) (or (or ?v_87 ?v_39) ?v_21)) (or (or ?v_27 ?v_80) ?v_131)) (or (or ?v_220 ?v_49) ?v_48)) (or (or ?v_227 ?v_219) ?v_2)) (or (or ?v_176 ?v_114) ?v_184)) (or (or P42 ?v_50) ?v_150)) (or (or ?v_155 ?v_85) ?v_89)) (or (or ?v_112 ?v_209) ?v_137)) (or (or ?v_125 P16) ?v_229)) (or (or ?v_259 ?v_86) ?v_206)) (or (or ?v_46 ?v_143) ?v_216)) (or (or ?v_250 ?v_41) ?v_180)) (or (or ?v_161 P3) ?v_178)) (or (or ?v_173 ?v_4) ?v_28)) (or (or P39 ?v_100) ?v_15)) (or (or ?v_152 ?v_42) ?v_16)) (or (or P47 P44) ?v_114)) (or (or ?v_243 ?v_218) ?v_203)) (or (or ?v_260 ?v_258) ?v_110)) (or (or ?v_183 ?v_85) ?v_42)) (or (or ?v_229 ?v_25) ?v_184)) (or (or P19 ?v_127) ?v_241)) (or (or ?v_122 ?v_155) P0)) (or (or P45 ?v_147) P7)) (or (or ?v_257 ?v_225) ?v_98)) (or (or ?v_117 ?v_122) ?v_12)) (or (or ?v_127 ?v_235) P5)) (or (or P2 ?v_100) ?v_29)) (or (or ?v_214 ?v_232) ?v_151)) (or (or P29 ?v_159) ?v_206)) (or (or ?v_73 ?v_46) ?v_13)) (or (or ?v_258 ?v_238) P34)) (or (or ?v_155 ?v_235) ?v_208)) (or (or P19 P30) ?v_164)) (or (or ?v_117 ?v_166) ?v_115)) (or (or ?v_187 ?v_203) ?v_219)) (or (or P37 ?v_111) ?v_135)) (or (or P42 P10) P43)) (or (or P37 ?v_178) P17)) (or (or ?v_74 ?v_191) ?v_139)) (or (or ?v_14 ?v_172) ?v_61)) (or (or P31 P25) P40)) (or (or ?v_45 ?v_36) ?v_67)) (or (or ?v_159 ?v_75) ?v_195)) (or (or ?v_111 ?v_244) ?v_41)) (or (or ?v_110 ?v_152) ?v_175)) (or (or ?v_140 ?v_10) ?v_261)) (or (or ?v_236 ?v_129) ?v_25)) (or (or ?v_237 ?v_49) ?v_101)) (or (or ?v_43 ?v_201) ?v_144)) (or (or P3 ?v_196) ?v_226)) (or (or P23 ?v_166) ?v_36)) (or (or ?v_167 ?v_248) ?v_82)) (or (or P12 ?v_95) ?v_254)) (or (or ?v_181 ?v_127) P17)) (or (or ?v_243 ?v_108) ?v_198)) (or (or ?v_109 ?v_25) ?v_129)) (or (or ?v_22 ?v_1) ?v_213)) (or (or ?v_164 P26) P22)) (or (or ?v_24 P33) ?v_247)) (or (or ?v_85 ?v_68) P21)) (or (or ?v_199 ?v_225) P45)) (or (or ?v_148 ?v_112) ?v_153)) (or (or ?v_112 ?v_16) ?v_2)) (or (or ?v_175 P30) ?v_1)) (or (or ?v_149 ?v_61) ?v_197)) (or (or ?v_63 P9) ?v_207)) (or (or ?v_171 ?v_179) ?v_138)) (or (or ?v_134 ?v_194) ?v_178)) (or (or ?v_19 ?v_262) ?v_164)) (or (or ?v_110 ?v_255) ?v_179)) (or (or ?v_139 ?v_121) ?v_55)) (or (or ?v_158 P19) ?v_204)) (or (or ?v_245 P24) ?v_6)) (or (or ?v_15 ?v_81) ?v_41)) (or (or P10 ?v_31) ?v_173)) (or (or ?v_32 ?v_242) ?v_67)) (or (or ?v_103 P45) ?v_246)) (or (or ?v_212 ?v_200) ?v_79)) (or (or ?v_256 ?v_168) ?v_94))))))))))))))))))))))))))))))))))))
(check-sat)
(exit)
